 200 22 
 81 23 26 52 56 36 14 40 3 76 56 68 
 39 25 40 57 27 60 27 72 72 61 
 12 
 1 2 4 5 6 7 8 11 15 16 17 21 
 17 
 1 2 3 4 5 7 8 10 12 13 14 15 
 16 17 18 19 22 
 7 
 5 7 12 14 15 18 19 
 6 
 2 5 12 13 16 19 
 4 
 5 12 16 21 
 5 
 7 8 18 21 22 
 7 
 5 7 10 11 13 15 19 
 2 
 5 22 
 18 
 1 2 3 4 5 6 7 8 10 11 12 14 
 15 16 18 20 21 22 
 7 
 6 7 11 14 16 19 21 
 10 
 1 4 5 6 11 15 18 19 20 21 
 15 
 1 4 5 6 8 9 10 11 12 13 14 15 
 17 20 22 
 9 
 1 3 7 8 14 16 17 18 20 
 19 
 1 3 4 5 6 7 8 10 12 13 14 15 
 16 17 18 19 20 21 22 
 16 
 1 2 3 6 9 10 11 12 13 15 16 17 
 19 20 21 22 
 6 
 2 4 10 11 18 19 
 22 
 1 2 3 4 5 6 7 8 9 10 11 12 
 13 14 15 16 17 18 19 20 21 22 
 5 
 2 4 9 16 21 
 2 
 3 8 
 5 
 2 3 10 18 22 
 8 
 1 2 3 7 10 20 21 22 
 14 
 1 2 4 5 8 10 11 12 14 15 16 19 
 21 22 
 10 
 1 2 5 10 15 17 18 19 20 21 
 15 
 1 3 4 5 7 8 10 11 12 13 14 16 
 18 21 22 
 2 
 10 22 
 16 
 1 2 3 4 5 6 9 10 12 13 14 15 
 16 17 19 21 
 22 
 1 2 3 4 5 6 7 8 9 10 11 12 
 13 14 15 16 17 18 19 20 21 22 
 16 
 3 4 5 7 8 9 10 11 12 14 16 17 
 18 19 20 22 
 22 
 1 2 3 4 5 6 7 8 9 10 11 12 
 13 14 15 16 17 18 19 20 21 22 
 8 
 2 8 14 15 17 18 19 21 
 6 
 7 12 18 19 21 22 
 6 
 1 10 11 19 21 22 
 4 
 1 2 12 20 
 12 
 3 4 5 6 7 9 12 14 16 19 20 21 
 16 
 1 3 4 5 7 8 9 10 11 12 16 17 
 19 20 21 22 
 5 
 1 2 4 5 19 
 8 
 3 5 7 12 14 15 17 21 
 6 
 4 9 14 17 18 20 
 6 
 1 7 11 14 16 22 
 16 
 2 3 4 6 8 9 10 11 13 14 15 17 
 18 19 20 21 
 11 
 6 7 9 10 11 16 17 18 19 20 21 
 4 
 6 7 10 20 
 11 
 1 2 4 6 9 10 13 15 16 17 18 
 5 
 3 5 6 11 13 
 3 
 2 15 17 
 7 
 2 10 12 13 16 18 20 
 11 
 2 3 4 5 8 9 11 13 15 16 22 
 15 
 1 2 3 6 7 9 11 12 13 15 16 17 
 18 19 20 
 13 
 2 3 6 7 9 10 12 13 16 17 19 20 
 21 
 12 
 3 5 6 7 8 9 14 15 17 19 20 21 
 2 
 8 15 
 14 
 2 4 6 7 8 9 10 11 12 13 16 17 
 18 20 
 15 
 1 2 4 5 6 7 8 9 10 14 16 17 
 18 20 21 
 16 
 1 2 4 6 7 8 9 10 13 14 15 17 
 18 20 21 22 
 12 
 3 4 6 7 8 13 14 16 17 18 20 22 
 13 
 1 5 6 7 8 9 11 12 14 15 16 19 
 20 
 3 
 9 11 22 
 22 
 1 2 3 4 5 6 7 8 9 10 11 12 
 13 14 15 16 17 18 19 20 21 22 
 9 
 4 6 11 14 15 16 18 20 21 
 20 
 1 2 4 5 6 7 8 10 11 12 13 14 
 15 16 17 18 19 20 21 22 
 7 
 2 4 6 13 16 18 21 
 16 
 2 4 5 6 7 8 9 10 11 12 13 15 
 17 19 20 22 
 12 
 1 8 9 10 11 12 14 15 16 17 18 19 
 11 
 5 7 8 9 12 13 15 16 19 20 21 
 17 
 1 3 4 6 7 8 10 11 12 13 14 17 
 18 19 20 21 22 
 5 
 8 12 15 16 22 
 7 
 4 5 7 11 12 17 22 
 2 
 17 22 
 11 
 1 2 5 7 8 10 11 12 13 14 19 
 12 
 1 2 7 8 9 10 12 13 14 18 19 21 
 9 
 1 2 9 10 12 14 15 16 20 
 9 
 4 6 7 8 9 13 16 19 22 
 14 
 2 3 5 6 7 8 9 11 12 13 14 15 
 17 18 
 8 
 2 5 8 11 13 16 19 20 
 15 
 2 4 5 6 7 9 11 12 15 16 17 18 
 19 20 21 
 15 
 2 5 6 7 8 10 11 13 14 15 17 19 
 20 21 22 
 9 
 3 4 9 11 14 17 19 20 21 
 12 
 1 3 6 7 8 9 10 11 12 13 17 19 
 13 
 1 2 4 5 6 9 12 13 15 17 20 21 
 22 
 15 
 1 3 4 8 9 10 12 13 14 15 18 19 
 20 21 22 
 8 
 2 3 4 5 10 17 19 22 
 2 
 7 10 
 2 
 6 10 
 15 
 1 4 6 8 9 11 12 13 16 17 18 19 
 20 21 22 
 8 
 3 5 7 9 10 12 15 20 
 22 
 1 2 3 4 5 6 7 8 9 10 11 12 
 13 14 15 16 17 18 19 20 21 22 
 16 
 2 3 4 6 7 9 12 13 14 15 16 17 
 18 19 20 22 
 17 
 1 2 3 4 5 6 7 8 9 10 11 14 
 15 16 18 19 22 
 22 
 1 2 3 4 5 6 7 8 9 10 11 12 
 13 14 15 16 17 18 19 20 21 22 
 3 
 12 15 22 
 17 
 1 3 4 5 7 8 9 11 12 13 14 15 
 16 17 18 20 22 
 14 
 1 4 7 8 11 13 14 15 16 17 18 19 
 21 22 
 3 
 7 10 18 
 22 
 1 2 3 4 5 6 7 8 9 10 11 12 
 13 14 15 16 17 18 19 20 21 22 
 21 
 1 2 3 4 5 7 8 9 10 11 12 13 
 14 15 16 17 18 19 20 21 22 
 15 
 1 2 3 5 7 8 9 10 11 13 14 16 
 17 18 21 
 8 
 8 9 11 12 13 15 17 19 
 9 
 1 2 3 8 9 11 15 16 22 
 13 
 1 2 4 5 7 9 13 14 16 17 19 21 
 22 
 6 
 8 10 13 15 16 19 
 19 
 1 2 4 5 6 7 9 10 11 12 13 14 
 16 17 18 19 20 21 22 
 10 
 2 3 5 7 9 10 11 15 18 22 
 12 
 1 2 3 9 10 11 12 14 17 18 21 22 
 14 
 3 6 7 8 9 10 13 15 16 18 19 20 
 21 22 
 11 
 1 2 6 9 13 15 16 19 20 21 22 
 15 
 3 4 6 7 8 9 10 11 14 15 17 18 
 19 20 21 
 10 
 3 4 7 8 12 17 18 19 20 21 
 16 
 1 2 4 5 6 7 8 9 10 11 12 14 
 15 17 18 20 
 4 
 7 9 10 18 
 2 
 4 16 
 18 
 2 3 4 5 6 7 8 9 10 11 12 13 
 14 15 16 17 19 21 
 17 
 2 3 4 7 8 9 10 11 12 13 15 16 
 17 18 20 21 22 
 9 
 2 3 7 11 12 14 18 21 22 
 10 
 1 5 11 12 13 15 16 18 20 22 
 15 
 1 2 3 5 6 8 9 10 12 14 15 16 
 19 21 22 
 11 
 1 3 9 12 13 17 18 19 20 21 22 
 8 
 1 4 9 12 16 18 19 22 
 4 
 6 9 17 22 
 11 
 1 5 6 8 12 13 14 16 20 21 22 
 17 
 1 2 3 4 5 8 9 11 12 13 14 16 
 17 18 19 20 21 
 5 
 2 3 11 12 20 
 13 
 2 5 6 8 10 11 13 14 17 18 19 20 
 21 
 17 
 1 2 3 5 6 7 9 10 11 12 16 17 
 18 19 20 21 22 
 11 
 1 3 5 6 7 11 14 15 16 18 21 
 19 
 1 2 3 4 5 6 7 8 9 10 12 14 
 15 16 17 19 20 21 22 
 16 
 1 2 3 4 5 6 7 8 10 12 13 14 
 18 19 21 22 
 5 
 2 4 8 12 17 
 13 
 1 3 6 7 8 9 10 11 12 13 15 17 
 20 
 14 
 1 3 5 7 10 12 13 14 16 17 18 19 
 21 22 
 9 
 1 4 9 10 11 12 13 15 21 
 15 
 2 4 6 7 8 11 13 14 16 17 18 19 
 20 21 22 
 22 
 1 2 3 4 5 6 7 8 9 10 11 12 
 13 14 15 16 17 18 19 20 21 22 
 21 
 1 2 4 5 6 7 8 9 10 11 12 13 
 14 15 16 17 18 19 20 21 22 
 11 
 1 3 4 5 7 8 10 13 15 19 20 
 20 
 1 2 3 4 5 6 7 8 9 11 12 13 
 14 15 16 17 18 19 20 21 
 5 
 9 13 14 18 21 
 3 
 3 13 14 
 4 
 6 11 16 22 
 3 
 3 16 21 
 5 
 3 8 10 11 13 
 3 
 12 14 22 
 3 
 1 9 21 
 22 
 1 2 3 4 5 6 7 8 9 10 11 12 
 13 14 15 16 17 18 19 20 21 22 
 16 
 1 2 4 5 6 9 11 13 14 15 16 17 
 19 20 21 22 
 11 
 4 5 7 8 9 10 11 12 14 16 19 
 17 
 1 3 5 7 8 9 10 11 12 13 14 15 
 16 18 20 21 22 
 13 
 2 6 7 11 12 13 14 15 16 17 18 20 
 22 
 4 
 1 2 4 7 
 22 
 1 2 3 4 5 6 7 8 9 10 11 12 
 13 14 15 16 17 18 19 20 21 22 
 3 
 3 6 19 
 22 
 1 2 3 4 5 6 7 8 9 10 11 12 
 13 14 15 16 17 18 19 20 21 22 
 19 
 1 2 3 4 5 6 7 8 9 10 12 14 
 15 16 18 19 20 21 22 
 16 
 2 3 5 7 9 10 11 13 14 15 16 17 
 18 19 20 21 
 20 
 1 2 3 4 5 6 7 9 10 11 12 13 
 14 16 17 18 19 20 21 22 
 11 
 1 2 3 5 9 11 13 15 20 21 22 
 18 
 1 2 4 5 6 7 9 11 12 13 14 15 
 16 17 19 20 21 22 
 15 
 1 4 5 7 8 9 10 11 13 14 15 18 
 19 20 21 
 4 
 5 7 10 21 
 14 
 1 3 4 5 6 11 12 13 14 16 17 19 
 20 22 
 9 
 1 2 3 4 10 12 18 19 21 
 13 
 3 4 5 6 8 9 11 14 15 16 18 20 
 21 
 12 
 1 2 3 4 5 7 8 13 15 16 19 21 
 6 
 2 4 7 8 9 17 
 20 
 1 2 3 4 5 6 7 8 9 10 11 12 
 14 15 16 17 18 19 21 22 
 19 
 1 2 3 4 5 7 8 9 10 11 12 13 
 14 15 16 17 19 20 21 
 13 
 1 4 5 6 7 8 9 11 13 19 20 21 
 22 
 8 
 1 5 7 8 10 12 19 22 
 8 
 2 6 9 11 15 17 19 22 
 15 
 1 3 4 5 7 9 10 12 13 14 15 16 
 17 19 22 
 8 
 2 5 10 13 17 18 21 22 
 13 
 5 6 8 9 10 11 12 13 14 17 18 20 
 22 
 4 
 4 7 13 21 
 12 
 1 3 5 7 9 10 14 17 19 20 21 22 
 6 
 3 4 6 7 14 17 
 10 
 3 4 5 6 7 8 9 11 13 14 
 2 
 1 16 
 17 
 1 2 3 5 6 7 8 9 10 11 12 14 
 16 18 20 21 22 
 14 
 2 3 5 8 10 11 12 13 15 16 17 19 
 21 22 
 14 
 1 4 6 9 10 13 14 15 16 17 18 20 
 21 22 
 18 
 1 2 3 4 5 6 8 10 12 13 14 15 
 16 17 18 19 20 22 
 14 
 1 2 3 7 8 9 13 14 15 16 18 19 
 20 21 
 22 
 1 2 3 4 5 6 7 8 9 10 11 12 
 13 14 15 16 17 18 19 20 21 22 
 11 
 1 2 3 4 6 9 11 17 18 19 21 
 16 
 1 2 3 4 5 6 7 9 10 14 15 17 
 18 20 21 22 
 12 
 1 4 6 7 8 10 13 15 19 20 21 22 
 21 
 1 2 3 4 5 6 8 9 10 11 12 13 
 14 15 16 17 18 19 20 21 22 
 15 
 3 5 6 8 9 10 11 12 14 15 17 18 
 19 20 21 
 11 
 1 2 4 7 13 15 16 17 19 20 22 
 12 
 1 3 5 6 7 8 10 11 15 18 19 20 
 2 
 10 11 
 5 
 7 8 10 11 14 
 4 
 2 3 4 16 
 21 
 1 2 4 5 6 7 8 9 10 11 12 13 
 14 15 16 17 18 19 20 21 22 
 20 
 1 2 3 4 6 7 8 9 10 12 13 14 
 15 16 17 18 19 20 21 22 
 12 
 2 3 4 6 10 12 13 14 15 16 18 22 
 17 
 1 2 3 4 5 6 8 9 11 12 13 14 
 15 16 19 20 22 
 3 
 5 13 15 
 4 
 4 9 11 13 
 15 
 2 3 5 8 9 11 12 13 14 15 16 18 
 19 20 21 
 13 
 1 2 4 9 10 11 12 13 14 15 16 20 
 22 
 